1296
8230
2647
8798
3000
7675
2775
4295
8314
2184
3275
8490
8577
9772
2261
2347
4222
5342
7887
6153
5155
2468
543
4240
8715
7291
1563
3581
6713
3606
9731
4278
2311
8208
2879
9472
2995
3170
10183
525
1680
4175
10020
9305
7167
8806
9590
9812
6232
5870
